c Generated map
c Size: 10 * 10, weights in range: 1 to 10, walls: True, with ratio 0.05
c dim 5 of 6
c
p sp 100 161
c graph contains 100 nodes and 161 arcs
c
a 1 11 5
a 11 1 5
a 1 2 3
a 2 1 3
a 2 3 3
a 3 2 3
a 3 13 5
a 13 3 5
a 3 4 6
a 4 3 6
a 4 5 5
a 5 4 5
a 5 15 9
a 15 5 9
a 5 6 7
a 6 5 7
a 6 16 1
a 16 6 1
a 6 7 3
a 7 6 3
a 7 17 1
a 17 7 1
a 7 8 8
a 8 7 8
a 8 18 5
a 18 8 5
a 8 9 10
a 9 8 10
a 9 19 2
a 19 9 2
a 9 10 9
a 10 9 9
a 11 21 7
a 21 11 7
a 13 23 5
a 23 13 5
a 15 25 4
a 25 15 4
a 15 16 9
a 16 15 9
a 16 26 3
a 26 16 3
a 16 17 5
a 17 16 5
a 17 27 7
a 27 17 7
a 17 18 4
a 18 17 4
a 18 28 4
a 28 18 4
a 18 19 8
a 19 18 8
a 21 31 6
a 31 21 6
a 21 22 8
a 22 21 8
a 22 32 9
a 32 22 9
a 22 23 10
a 23 22 10
a 23 33 9
a 33 23 9
a 23 24 2
a 24 23 2
a 24 34 7
a 34 24 7
a 24 25 3
a 25 24 3
a 25 35 7
a 35 25 7
a 25 26 4
a 26 25 4
a 26 36 9
a 36 26 9
a 26 27 10
a 27 26 10
a 27 28 7
a 28 27 7
a 28 38 2
a 38 28 2
a 30 40 5
a 40 30 5
a 31 41 6
a 41 31 6
a 31 32 9
a 32 31 9
a 32 42 5
a 42 32 5
a 32 33 6
a 33 32 6
a 33 43 3
a 43 33 3
a 33 34 4
a 34 33 4
a 34 44 7
a 44 34 7
a 34 35 8
a 35 34 8
a 35 45 5
a 45 35 5
a 35 36 5
a 36 35 5
a 36 46 4
a 46 36 4
a 38 48 9
a 48 38 9
a 38 39 10
a 39 38 10
a 39 49 2
a 49 39 2
a 39 40 4
a 40 39 4
a 40 50 3
a 50 40 3
a 41 51 2
a 51 41 2
a 41 42 5
a 42 41 5
a 42 52 9
a 52 42 9
a 42 43 3
a 43 42 3
a 43 53 7
a 53 43 7
a 43 44 2
a 44 43 2
a 44 54 3
a 54 44 3
a 44 45 2
a 45 44 2
a 45 55 2
a 55 45 2
a 45 46 8
a 46 45 8
a 46 56 7
a 56 46 7
a 46 47 3
a 47 46 3
a 47 57 9
a 57 47 9
a 47 48 4
a 48 47 4
a 48 58 1
a 58 48 1
a 48 49 8
a 49 48 8
a 49 59 6
a 59 49 6
a 49 50 1
a 50 49 1
a 50 60 7
a 60 50 7
a 51 61 3
a 61 51 3
a 51 52 7
a 52 51 7
a 52 62 8
a 62 52 8
a 52 53 2
a 53 52 2
a 53 63 7
a 63 53 7
a 53 54 8
a 54 53 8
a 54 64 4
a 64 54 4
a 54 55 7
a 55 54 7
a 55 65 5
a 65 55 5
a 55 56 5
a 56 55 5
a 56 66 3
a 66 56 3
a 56 57 1
a 57 56 1
a 57 67 10
a 67 57 10
a 57 58 1
a 58 57 1
a 58 68 1
a 68 58 1
a 58 59 2
a 59 58 2
a 59 69 3
a 69 59 3
a 59 60 10
a 60 59 10
a 60 70 9
a 70 60 9
a 61 71 3
a 71 61 3
a 61 62 8
a 62 61 8
a 62 72 10
a 72 62 10
a 62 63 7
a 63 62 7
a 63 73 10
a 73 63 10
a 63 64 7
a 64 63 7
a 64 74 10
a 74 64 10
a 64 65 8
a 65 64 8
a 65 75 1
a 75 65 1
a 65 66 6
a 66 65 6
a 66 76 4
a 76 66 4
a 66 67 6
a 67 66 6
a 67 77 8
a 77 67 8
a 67 68 7
a 68 67 7
a 68 78 6
a 78 68 6
a 68 69 7
a 69 68 7
a 69 79 3
a 79 69 3
a 69 70 9
a 70 69 9
a 70 80 1
a 80 70 1
a 71 81 6
a 81 71 6
a 71 72 10
a 72 71 10
a 72 82 4
a 82 72 4
a 72 73 2
a 73 72 2
a 73 83 1
a 83 73 1
a 73 74 6
a 74 73 6
a 74 84 5
a 84 74 5
a 74 75 1
a 75 74 1
a 75 85 8
a 85 75 8
a 75 76 5
a 76 75 5
a 76 86 9
a 86 76 9
a 76 77 4
a 77 76 4
a 77 87 10
a 87 77 10
a 77 78 4
a 78 77 4
a 78 88 4
a 88 78 4
a 78 79 1
a 79 78 1
a 79 89 8
a 89 79 8
a 79 80 2
a 80 79 2
a 80 90 1
a 90 80 1
a 81 91 9
a 91 81 9
a 81 82 3
a 82 81 3
a 82 92 9
a 92 82 9
a 82 83 4
a 83 82 4
a 83 93 2
a 93 83 2
a 83 84 10
a 84 83 10
a 84 94 5
a 94 84 5
a 84 85 7
a 85 84 7
a 85 95 2
a 95 85 2
a 85 86 10
a 86 85 10
a 86 96 4
a 96 86 4
a 86 87 1
a 87 86 1
a 87 97 2
a 97 87 2
a 87 88 3
a 88 87 3
a 88 98 10
a 98 88 10
a 88 89 5
a 89 88 5
a 89 99 7
a 99 89 7
a 89 90 10
a 90 89 10
a 90 100 7
a 100 90 7
a 91 92 1
a 92 91 1
a 92 93 9
a 93 92 9
a 93 94 5
a 94 93 5
a 94 95 8
a 95 94 8
a 95 96 6
a 96 95 6
a 96 97 5
a 97 96 5
a 97 98 7
a 98 97 7
a 98 99 8
a 99 98 8
a 99 100 9
a 100 99 9
